Min
	x_0_7 + x_1_7 + x_2_7 + x_3_7 + x_4_7 + x_5_7 + x_6_7 + x_7_7 + x_8_7 + x_9_7

Subject to
	x_0_1 + x_0_2 + x_0_3 + x_0_4 + x_0_5 + x_0_6 + x_0_7 = 1
	x_1_1 + x_1_2 + x_1_3 + x_1_4 + x_1_5 + x_1_6 + x_1_7 = 1
	x_2_1 + x_2_2 + x_2_3 + x_2_4 + x_2_5 + x_2_6 + x_2_7 = 1
	x_3_1 + x_3_2 + x_3_3 + x_3_4 + x_3_5 + x_3_6 + x_3_7 = 1
	x_4_1 + x_4_2 + x_4_3 + x_4_4 + x_4_5 + x_4_6 + x_4_7 = 1
	x_5_1 + x_5_2 + x_5_3 + x_5_4 + x_5_5 + x_5_6 + x_5_7 = 1
	x_6_1 + x_6_2 + x_6_3 + x_6_4 + x_6_5 + x_6_6 + x_6_7 = 1
	x_7_1 + x_7_2 + x_7_3 + x_7_4 + x_7_5 + x_7_6 + x_7_7 = 1
	x_8_1 + x_8_2 + x_8_3 + x_8_4 + x_8_5 + x_8_6 + x_8_7 = 1
	x_9_1 + x_9_2 + x_9_3 + x_9_4 + x_9_5 + x_9_6 + x_9_7 = 1
	1 x_0_1 + 2 x_1_1 + 3 x_2_1 + 4 x_3_1 + 5 x_4_1 + 6 x_5_1 + 7 x_6_1 + 8 x_7_1 + 9 x_8_1 + 10 x_9_1 <= 10
	1 x_0_2 + 2 x_1_2 + 3 x_2_2 + 4 x_3_2 + 5 x_4_2 + 6 x_5_2 + 7 x_6_2 + 8 x_7_2 + 9 x_8_2 + 10 x_9_2 <= 10
	1 x_0_3 + 2 x_1_3 + 3 x_2_3 + 4 x_3_3 + 5 x_4_3 + 6 x_5_3 + 7 x_6_3 + 8 x_7_3 + 9 x_8_3 + 10 x_9_3 <= 10
	101 x_0_1 <= 103
	2 x_0_1 + 102 x_1_1 <= 104
	3 x_0_1 + 3 x_1_1 + 103 x_2_1 <= 105
	4 x_0_1 + 4 x_1_1 + 4 x_2_1 + 104 x_3_1 <= 106
	5 x_0_1 + 5 x_1_1 + 5 x_2_1 + 5 x_3_1 + 105 x_4_1 <= 107
	6 x_0_1 + 6 x_1_1 + 6 x_2_1 + 6 x_3_1 + 6 x_4_1 + 106 x_5_1 <= 108
	7 x_0_1 + 7 x_1_1 + 7 x_2_1 + 7 x_3_1 + 7 x_4_1 + 7 x_5_1 + 107 x_6_1 <= 109
	8 x_0_1 + 8 x_1_1 + 8 x_2_1 + 8 x_3_1 + 8 x_4_1 + 8 x_5_1 + 8 x_6_1 + 108 x_7_1 <= 110
	9 x_0_1 + 9 x_1_1 + 9 x_2_1 + 9 x_3_1 + 9 x_4_1 + 9 x_5_1 + 9 x_6_1 + 9 x_7_1 + 109 x_8_1 <= 111
	10 x_0_1 + 10 x_1_1 + 10 x_2_1 + 10 x_3_1 + 10 x_4_1 + 10 x_5_1 + 10 x_6_1 + 10 x_7_1 + 10 x_8_1 + 110 x_9_1 <= 112
	101 x_0_2 <= 103
	2 x_0_2 + 102 x_1_2 <= 104
	3 x_0_2 + 3 x_1_2 + 103 x_2_2 <= 105
	4 x_0_2 + 4 x_1_2 + 4 x_2_2 + 104 x_3_2 <= 106
	5 x_0_2 + 5 x_1_2 + 5 x_2_2 + 5 x_3_2 + 105 x_4_2 <= 107
	6 x_0_2 + 6 x_1_2 + 6 x_2_2 + 6 x_3_2 + 6 x_4_2 + 106 x_5_2 <= 108
	7 x_0_2 + 7 x_1_2 + 7 x_2_2 + 7 x_3_2 + 7 x_4_2 + 7 x_5_2 + 107 x_6_2 <= 109
	8 x_0_2 + 8 x_1_2 + 8 x_2_2 + 8 x_3_2 + 8 x_4_2 + 8 x_5_2 + 8 x_6_2 + 108 x_7_2 <= 110
	9 x_0_2 + 9 x_1_2 + 9 x_2_2 + 9 x_3_2 + 9 x_4_2 + 9 x_5_2 + 9 x_6_2 + 9 x_7_2 + 109 x_8_2 <= 111
	10 x_0_2 + 10 x_1_2 + 10 x_2_2 + 10 x_3_2 + 10 x_4_2 + 10 x_5_2 + 10 x_6_2 + 10 x_7_2 + 10 x_8_2 + 110 x_9_2 <= 112
	101 x_0_3 <= 103
	2 x_0_3 + 102 x_1_3 <= 104
	3 x_0_3 + 3 x_1_3 + 103 x_2_3 <= 105
	4 x_0_3 + 4 x_1_3 + 4 x_2_3 + 104 x_3_3 <= 106
	5 x_0_3 + 5 x_1_3 + 5 x_2_3 + 5 x_3_3 + 105 x_4_3 <= 107
	6 x_0_3 + 6 x_1_3 + 6 x_2_3 + 6 x_3_3 + 6 x_4_3 + 106 x_5_3 <= 108
	7 x_0_3 + 7 x_1_3 + 7 x_2_3 + 7 x_3_3 + 7 x_4_3 + 7 x_5_3 + 107 x_6_3 <= 109
	8 x_0_3 + 8 x_1_3 + 8 x_2_3 + 8 x_3_3 + 8 x_4_3 + 8 x_5_3 + 8 x_6_3 + 108 x_7_3 <= 110
	9 x_0_3 + 9 x_1_3 + 9 x_2_3 + 9 x_3_3 + 9 x_4_3 + 9 x_5_3 + 9 x_6_3 + 9 x_7_3 + 109 x_8_3 <= 111
	10 x_0_3 + 10 x_1_3 + 10 x_2_3 + 10 x_3_3 + 10 x_4_3 + 10 x_5_3 + 10 x_6_3 + 10 x_7_3 + 10 x_8_3 + 110 x_9_3 <= 112
	101 x_0_4 <= 91
	2 x_0_4 + 102 x_1_4 <= 92
	3 x_0_4 + 3 x_1_4 + 103 x_2_4 <= 93
	4 x_0_4 + 4 x_1_4 + 4 x_2_4 + 104 x_3_4 <= 94
	5 x_0_4 + 5 x_1_4 + 5 x_2_4 + 5 x_3_4 + 105 x_4_4 <= 95
	6 x_0_4 + 6 x_1_4 + 6 x_2_4 + 6 x_3_4 + 6 x_4_4 + 106 x_5_4 <= 96
	7 x_0_4 + 7 x_1_4 + 7 x_2_4 + 7 x_3_4 + 7 x_4_4 + 7 x_5_4 + 107 x_6_4 <= 97
	8 x_0_4 + 8 x_1_4 + 8 x_2_4 + 8 x_3_4 + 8 x_4_4 + 8 x_5_4 + 8 x_6_4 + 108 x_7_4 <= 98
	9 x_0_4 + 9 x_1_4 + 9 x_2_4 + 9 x_3_4 + 9 x_4_4 + 9 x_5_4 + 9 x_6_4 + 9 x_7_4 + 109 x_8_4 <= 99
	10 x_0_4 + 10 x_1_4 + 10 x_2_4 + 10 x_3_4 + 10 x_4_4 + 10 x_5_4 + 10 x_6_4 + 10 x_7_4 + 10 x_8_4 + 110 x_9_4 <= 100
	101 x_0_5 <= 91
	2 x_0_5 + 102 x_1_5 <= 92
	3 x_0_5 + 3 x_1_5 + 103 x_2_5 <= 93
	4 x_0_5 + 4 x_1_5 + 4 x_2_5 + 104 x_3_5 <= 94
	5 x_0_5 + 5 x_1_5 + 5 x_2_5 + 5 x_3_5 + 105 x_4_5 <= 95
	6 x_0_5 + 6 x_1_5 + 6 x_2_5 + 6 x_3_5 + 6 x_4_5 + 106 x_5_5 <= 96
	7 x_0_5 + 7 x_1_5 + 7 x_2_5 + 7 x_3_5 + 7 x_4_5 + 7 x_5_5 + 107 x_6_5 <= 97
	8 x_0_5 + 8 x_1_5 + 8 x_2_5 + 8 x_3_5 + 8 x_4_5 + 8 x_5_5 + 8 x_6_5 + 108 x_7_5 <= 98
	9 x_0_5 + 9 x_1_5 + 9 x_2_5 + 9 x_3_5 + 9 x_4_5 + 9 x_5_5 + 9 x_6_5 + 9 x_7_5 + 109 x_8_5 <= 99
	10 x_0_5 + 10 x_1_5 + 10 x_2_5 + 10 x_3_5 + 10 x_4_5 + 10 x_5_5 + 10 x_6_5 + 10 x_7_5 + 10 x_8_5 + 110 x_9_5 <= 100
	101 x_0_6 <= 91
	2 x_0_6 + 102 x_1_6 <= 92
	3 x_0_6 + 3 x_1_6 + 103 x_2_6 <= 93
	4 x_0_6 + 4 x_1_6 + 4 x_2_6 + 104 x_3_6 <= 94
	5 x_0_6 + 5 x_1_6 + 5 x_2_6 + 5 x_3_6 + 105 x_4_6 <= 95
	6 x_0_6 + 6 x_1_6 + 6 x_2_6 + 6 x_3_6 + 6 x_4_6 + 106 x_5_6 <= 96
	7 x_0_6 + 7 x_1_6 + 7 x_2_6 + 7 x_3_6 + 7 x_4_6 + 7 x_5_6 + 107 x_6_6 <= 97
	8 x_0_6 + 8 x_1_6 + 8 x_2_6 + 8 x_3_6 + 8 x_4_6 + 8 x_5_6 + 8 x_6_6 + 108 x_7_6 <= 98
	9 x_0_6 + 9 x_1_6 + 9 x_2_6 + 9 x_3_6 + 9 x_4_6 + 9 x_5_6 + 9 x_6_6 + 9 x_7_6 + 109 x_8_6 <= 99
	10 x_0_6 + 10 x_1_6 + 10 x_2_6 + 10 x_3_6 + 10 x_4_6 + 10 x_5_6 + 10 x_6_6 + 10 x_7_6 + 10 x_8_6 + 110 x_9_6 <= 100
	
Binary
	x_0_1
	x_0_2
	x_0_3
	x_0_4
	x_0_5
	x_0_6
	x_0_7
	x_1_1
	x_1_2
	x_1_3
	x_1_4
	x_1_5
	x_1_6
	x_1_7
	x_2_1
	x_2_2
	x_2_3
	x_2_4
	x_2_5
	x_2_6
	x_2_7
	x_3_1
	x_3_2
	x_3_3
	x_3_4
	x_3_5
	x_3_6
	x_3_7
	x_4_1
	x_4_2
	x_4_3
	x_4_4
	x_4_5
	x_4_6
	x_4_7
	x_5_1
	x_5_2
	x_5_3
	x_5_4
	x_5_5
	x_5_6
	x_5_7
	x_6_1
	x_6_2
	x_6_3
	x_6_4
	x_6_5
	x_6_6
	x_6_7
	x_7_1
	x_7_2
	x_7_3
	x_7_4
	x_7_5
	x_7_6
	x_7_7
	x_8_1
	x_8_2
	x_8_3
	x_8_4
	x_8_5
	x_8_6
	x_8_7
	x_9_1
	x_9_2
	x_9_3
	x_9_4
	x_9_5
	x_9_6
	x_9_7
	
End